(declare-sort $$unsorted 0)
(declare-fun tptp.op ($$unsorted $$unsorted) $$unsorted)
(assert (forall ((X0 $$unsorted) (X1 $$unsorted) (X2 $$unsorted) (X3 $$unsorted)) (= (tptp.op X0 (tptp.op X1 X2)) (tptp.op (tptp.op X1 X1) X0))))
(assert (not (forall ((X0 $$unsorted) (X1 $$unsorted) (X2 $$unsorted) (X3 $$unsorted)) (= (tptp.op X0 (tptp.op X1 X2)) (tptp.op (tptp.op X3 X3) X0)))))
(set-info :filename Equation4527_implies_Equation4572)
(check-sat-assuming ( true ))
